NAME: rue_20_5
TYPE: TSP
DIMENSION: 20
EDGE_WEIGHT_TYPE: EUC_2D
NODE_COORD_SECTION
1 20 2
2 1 25
3 19 27
4 3 32
5 38 3
6 35 15
7 30 34
8 9 25
9 5 19
10 20 27
11 19 30
12 24 16
13 35 26
14 34 11
15 22 37
16 19 5
17 22 40
18 25 7
19 14 21
20 2 13

